certificates/rado_a9_c274_N32.cnf
c Rad2 upper bound instance: x1 + 9*x2 - x3 = 274, interval [1,32]
p cnf 32 206
1 6 31 0
-1 -6 -31 0
1 15 32 0
-1 -15 -32 0
2 7 31 0
-2 -7 -31 0
2 16 32 0
-2 -16 -32 0
3 8 31 0
-3 -8 -31 0
3 17 32 0
-3 -17 -32 0
4 9 31 0
-4 -9 -31 0
4 18 32 0
-4 -18 -32 0
1 5 30 0
-1 -5 -30 0
5 10 31 0
-5 -10 -31 0
5 19 32 0
-5 -19 -32 0
2 6 30 0
-2 -6 -30 0
6 11 31 0
-6 -11 -31 0
6 20 32 0
-6 -20 -32 0
3 7 30 0
-3 -7 -30 0
7 12 31 0
-7 -12 -31 0
7 21 32 0
-7 -21 -32 0
4 8 30 0
-4 -8 -30 0
8 13 31 0
-8 -13 -31 0
8 22 32 0
-8 -22 -32 0
5 9 30 0
-5 -9 -30 0
9 14 31 0
-9 -14 -31 0
9 23 32 0
-9 -23 -32 0
6 10 30 0
-6 -10 -30 0
10 15 31 0
-10 -15 -31 0
10 24 32 0
-10 -24 -32 0
7 11 30 0
-7 -11 -30 0
11 16 31 0
-11 -16 -31 0
11 25 32 0
-11 -25 -32 0
8 12 30 0
-8 -12 -30 0
12 17 31 0
-12 -17 -31 0
12 26 32 0
-12 -26 -32 0
9 13 30 0
-9 -13 -30 0
13 18 31 0
-13 -18 -31 0
13 27 32 0
-13 -27 -32 0
1 14 29 0
-1 -14 -29 0
10 14 30 0
-10 -14 -30 0
14 19 31 0
-14 -19 -31 0
14 28 32 0
-14 -28 -32 0
2 15 29 0
-2 -15 -29 0
11 15 30 0
-11 -15 -30 0
15 20 31 0
-15 -20 -31 0
15 29 32 0
-15 -29 -32 0
3 16 29 0
-3 -16 -29 0
12 16 30 0
-12 -16 -30 0
16 21 31 0
-16 -21 -31 0
16 30 32 0
-16 -30 -32 0
4 17 29 0
-4 -17 -29 0
13 17 30 0
-13 -17 -30 0
17 22 31 0
-17 -22 -31 0
17 31 32 0
-17 -31 -32 0
5 18 29 0
-5 -18 -29 0
14 18 30 0
-14 -18 -30 0
18 23 31 0
-18 -23 -31 0
18 32 0
-18 -32 0
6 19 29 0
-6 -19 -29 0
15 19 30 0
-15 -19 -30 0
19 24 31 0
-19 -24 -31 0
7 20 29 0
-7 -20 -29 0
16 20 30 0
-16 -20 -30 0
20 25 31 0
-20 -25 -31 0
8 21 29 0
-8 -21 -29 0
17 21 30 0
-17 -21 -30 0
21 26 31 0
-21 -26 -31 0
9 22 29 0
-9 -22 -29 0
18 22 30 0
-18 -22 -30 0
22 27 31 0
-22 -27 -31 0
1 23 28 0
-1 -23 -28 0
10 23 29 0
-10 -23 -29 0
19 23 30 0
-19 -23 -30 0
23 28 31 0
-23 -28 -31 0
2 24 28 0
-2 -24 -28 0
11 24 29 0
-11 -24 -29 0
20 24 30 0
-20 -24 -30 0
24 29 31 0
-24 -29 -31 0
3 25 28 0
-3 -25 -28 0
12 25 29 0
-12 -25 -29 0
21 25 30 0
-21 -25 -30 0
25 30 31 0
-25 -30 -31 0
4 26 28 0
-4 -26 -28 0
13 26 29 0
-13 -26 -29 0
22 26 30 0
-22 -26 -30 0
26 31 0
-26 -31 0
5 27 28 0
-5 -27 -28 0
14 27 29 0
-14 -27 -29 0
23 27 30 0
-23 -27 -30 0
27 31 32 0
-27 -31 -32 0
6 28 0
-6 -28 0
15 28 29 0
-15 -28 -29 0
24 28 30 0
-24 -28 -30 0
7 28 29 0
-7 -28 -29 0
16 29 0
-16 -29 0
25 29 30 0
-25 -29 -30 0
8 28 30 0
-8 -28 -30 0
17 29 30 0
-17 -29 -30 0
26 30 0
-26 -30 0
9 28 31 0
-9 -28 -31 0
18 29 31 0
-18 -29 -31 0
27 30 31 0
-27 -30 -31 0
1 27 32 0
-1 -27 -32 0
10 28 32 0
-10 -28 -32 0
19 29 32 0
-19 -29 -32 0
28 30 32 0
-28 -30 -32 0
