certificates/rado_a9_c274_N32.drat
-31 -32 0
-32 0
18 0
31 0
-26 0
-13 0
-23 0
-29 0
30 0
12 0
27 0
0
